11101111001110111100111100001011110000111001111110000010101011000100100101000010110100111001110111100110010110111100100010011100110000011110110111100000010111011101110111101010110100001000101111000110010100111000101110011000110011100000101111100110101011011100010011010010000111001110110101100011011110101100100110110010110110010011011000010100000001111010010000010001101000011010111001001101110011000010100001000110011000111101001010010111001010111100100011000110010000000010001100011000010010101001100011011010000000001111101001110110100100000100000011000111010111011101110001101101110110000111100011100100011000000100100010110110110001010111010101111011010001010011001010010110000111100010100000011111000111111101011001100000110011010111001011001100010001011001000001101110101110110111100101000110011100011100111111000001000100101011001101111010101011111010111010101001110001111011111000101000010101001001001011011100100001110100010111000011001001000100011000111110010111010011001001000000110111100000110101111101101011110101010101011100101101100000001011010011011001000111000001011101010100000011010000010001111111010111010110000001011100100001001000010101011111010011100010001011100001001011010010001010110110010001100000011001110100011110001111111100101100000110110011110010